SCIP version 5.0.0 [precision: 8 byte] [memory: block] [mode: optimized] [LP solver: NONE] [GitHash: 3bbd232]
Copyright (C) 2002-2017 Konrad-Zuse-Zentrum fuer Informationstechnik Berlin (ZIB)

External codes: 
  Readline EditLine w  GNU library for command line editing (gnu.org/s/readline)
  CppAD 20160000.1     Algorithmic Differentiation of C++ algorithms developed by B. Bell (www.coin-or.org/CppAD)
  ZLIB 1.2.5           General purpose compression library by J. Gailly and M. Adler (zlib.net)
  GMP 6.1.2            GNU Multiple Precision Arithmetic Library developed by T. Granlund (gmplib.org)

user parameter file <scip.set> not found - using default parameters

read problem <../../Split_data/output/spectf/4/0_sample_spectf.logreg>
============

File name	:	../../Split_data/output/spectf/4/0_sample_spectf.logreg
Problem name 	:	0_sample_spectf
Number of data	:	214
Number of var	:	44
The given data has linear independence

[dim=1] time: 0.010748
[dim=2] time: 0.019094
[dim=3] time: 0.027011
[dim=4] time: 0.034009
[dim=5] time: 0.040789
[dim=6] time: 0.051122
[dim=7] time: 0.057781
[dim=8] time: 0.0647
[dim=9] time: 0.071869
[dim=10] time: 0.079383
[dim=11] Time of forward = 0.087154sec.
AIC: 138.432
k: 10

[dim=44] time: 0.037408
[dim=43] time: 0.052066
[dim=42] time: 0.068369
[dim=41] time: 0.083566
[dim=40] time: 0.103141
[dim=39] time: 0.118354
[dim=38] time: 0.133122
[dim=37] time: 0.145422
[dim=36] time: 0.155965
[dim=35] time: 0.167461
[dim=34] time: 0.178593
[dim=33] time: 0.190429
[dim=32] time: 0.202637
[dim=31] time: 0.212454
[dim=30] time: 0.223658
[dim=29] time: 0.234365
[dim=28] time: 0.245023
[dim=27] time: 0.256096
[dim=26] time: 0.264564
[dim=25] time: 0.2716
[dim=24] time: 0.281713
[dim=23] time: 0.290324
[dim=22] time: 0.296637
[dim=21] time: 0.301924
[dim=20] time: 0.310264
[dim=19] time: 0.316293
[dim=18] time: 0.321557
[dim=17] Time of backward = 0.326469sec.
AIC: 134.364
k: 18
